p ocr 80 16 80
1 94
2 88
3 95
4 95
5 93
6 85
7 92
8 96
9 83
10 84
11 94
12 83
13 96
14 86
15 90
16 85
17 84
18 81
19 87
20 85
21 86
22 83
23 91
24 92
25 82
26 87
27 86
28 90
29 89
30 92
31 92
32 82
33 87
34 91
35 93
36 88
37 96
38 89
39 90
40 87
41 84
42 96
43 91
44 91
45 89
46 93
47 92
48 88
49 86
50 83
51 82
52 81
53 95
54 85
55 96
56 81
57 83
58 95
59 81
60 84
61 88
62 86
63 88
64 93
65 94
66 89
67 93
68 95
69 84
70 91
71 87
72 81
73 94
74 94
75 82
76 90
77 89
78 85
79 90
80 82
